(set-logic QF_SLIA)
(declare-fun var0 () String)
(assert (not (str.in_re var0 (re.++ ((_ re.loop 10 611) (re.++ (re.union (str.to_re "E") (re.union (str.to_re "TSi") (re.union (str.to_re "6jd") (str.to_re "i")))) (re.++ (re.union (str.to_re "DT") (re.union (str.to_re "q1+") (re.union (str.to_re "C-") (str.to_re "B")))) (re.++ (re.union (str.to_re "{yY") (re.union (str.to_re "u7") (re.union (str.to_re "n[") (str.to_re "]<5")))) (re.union (str.to_re "J") (re.union (str.to_re "$*") (re.union (str.to_re "z1^") (str.to_re "@")))))))) (re.++ ((_ re.loop 2 884) (re.++ (re.union (str.to_re "g:0") (re.union (str.to_re "(") (re.union (str.to_re "XAM") (str.to_re "s$")))) (re.++ (re.union (str.to_re "nP") (re.union (str.to_re "=Ag") (re.union (str.to_re "E") (str.to_re "&:")))) (re.++ (re.union (str.to_re "Y") (re.union (str.to_re "3") (re.union (str.to_re "Xh") (str.to_re "k_")))) (re.union (str.to_re "U") (re.union (str.to_re "c>") (re.union (str.to_re "X") (str.to_re "1m")))))))) (re.++ ((_ re.loop 4 707) (re.++ (re.union (str.to_re ";") (re.union (str.to_re "h1") (re.union (str.to_re "0Z") (str.to_re "u")))) (re.++ (re.union (str.to_re "@}") (re.union (str.to_re "tp") (re.union (str.to_re ",N") (str.to_re "[")))) (re.++ (re.union (str.to_re ":r") (re.union (str.to_re "e%") (re.union (str.to_re "WK") (str.to_re "sE")))) (re.union (str.to_re "Wc\u0022") (re.union (str.to_re "3W") (re.union (str.to_re "}5T") (str.to_re "#")))))))) ((_ re.loop 12 266) (re.++ (re.union (str.to_re "t") (re.union (str.to_re ">") (re.union (str.to_re "fiH") (str.to_re "O9x")))) (re.++ (re.union (str.to_re "e") (re.union (str.to_re "aq") (re.union (str.to_re "|") (str.to_re "^<A")))) (re.++ (re.union (str.to_re "=x") (re.union (str.to_re "3[k") (re.union (str.to_re "pj") (str.to_re "M:,")))) (re.union (str.to_re ")B") (re.union (str.to_re "X?") (re.union (str.to_re "aR@") (str.to_re ".aT"))))))))))))))
(assert (not (str.in_re var0 (re.++ ((_ re.loop 18 706) (re.++ (re.union (str.to_re "p") (re.union (str.to_re "\\R") (re.union (str.to_re "c\u0022a") (str.to_re "(")))) (re.++ (re.union (str.to_re "sG") (re.union (str.to_re "A9") (re.union (str.to_re "a") (str.to_re ";")))) (re.++ (re.union (str.to_re "yGh") (re.union (str.to_re "F0") (re.union (str.to_re "I#") (str.to_re "ZH")))) (re.union (str.to_re "8Qb") (re.union (str.to_re "vD") (re.union (str.to_re "!np") (str.to_re "H")))))))) (re.++ ((_ re.loop 11 881) (re.++ (re.union (str.to_re "=ru") (re.union (str.to_re "rQ`") (re.union (str.to_re "CQ0") (str.to_re "eSw")))) (re.++ (re.union (str.to_re "X") (re.union (str.to_re "q") (re.union (str.to_re "g<") (str.to_re ":g")))) (re.++ (re.union (str.to_re "z") (re.union (str.to_re ">v#") (re.union (str.to_re "*L") (str.to_re "c/")))) (re.union (str.to_re ":") (re.union (str.to_re ")") (re.union (str.to_re "C") (str.to_re "&xh")))))))) (re.++ ((_ re.loop 19 772) (re.++ (re.union (str.to_re "\u0022") (re.union (str.to_re "g") (re.union (str.to_re ".\u0022^") (str.to_re "j")))) (re.++ (re.union (str.to_re "0q-") (re.union (str.to_re "b") (re.union (str.to_re "AK") (str.to_re "NS;")))) (re.++ (re.union (str.to_re ";W") (re.union (str.to_re "^wx") (re.union (str.to_re "L") (str.to_re ":")))) (re.union (str.to_re "q)R") (re.union (str.to_re "X") (re.union (str.to_re "\u0022>U") (str.to_re "#")))))))) ((_ re.loop 15 295) (re.++ (re.union (str.to_re "\u0022.") (re.union (str.to_re "R") (re.union (str.to_re "N") (str.to_re "'q")))) (re.++ (re.union (str.to_re "^") (re.union (str.to_re "K") (re.union (str.to_re "E") (str.to_re "F")))) (re.++ (re.union (str.to_re "t") (re.union (str.to_re "3gs") (re.union (str.to_re "H-Q") (str.to_re "w*")))) (re.union (str.to_re ",W6") (re.union (str.to_re "gZr") (re.union (str.to_re "_Q") (str.to_re "]`D"))))))))))))))
(assert (not (str.in_re var0 (re.++ (re.* re.allchar) (re.++ (re.union (str.to_re "<") (re.union (str.to_re ">") (re.union (str.to_re "'") (re.union (str.to_re "\u0022") (str.to_re "&"))))) (re.* re.allchar))))))
(assert (<= 50 (str.len var0)))
(check-sat)
(get-model)
